solution status: optimal solution found
objective value:                     106429.387799946
d11(0,0)                                            1 	(obj:0)
d11(1,1)                                            1 	(obj:0)
d11(2,4)                                            1 	(obj:0)
d11(2,7)                                            1 	(obj:0)
d11(2,8)                                            1 	(obj:0)
d11(2,10)                                           1 	(obj:0)
d11(2,11)                                           1 	(obj:0)
d11(3,13)                                           1 	(obj:0)
d11(3,14)                                           1 	(obj:0)
d11(3,15)                                           1 	(obj:0)
d11(3,16)                                           1 	(obj:0)
d11(3,17)                                           1 	(obj:0)
d11(3,18)                                           1 	(obj:0)
d11(3,19)                                           1 	(obj:0)
d11(3,20)                                           1 	(obj:0)
d11(3,21)                                           1 	(obj:0)
d11(3,22)                                           1 	(obj:0)
d11(3,23)                                           1 	(obj:0)
d11(3,25)                                           1 	(obj:0)
d11(3,26)                                           1 	(obj:0)
d11(3,27)                                           1 	(obj:0)
d11(3,28)                                           1 	(obj:0)
d11(3,29)                                           1 	(obj:0)
d11(3,30)                                           1 	(obj:0)
d11(3,31)                                           1 	(obj:0)
d11(3,32)                                           1 	(obj:0)
d11(3,33)                                           1 	(obj:0)
d11(3,34)                                           1 	(obj:0)
d11(3,35)                                           1 	(obj:0)
d11(3,37)                                           1 	(obj:0)
d11(3,38)                                           1 	(obj:0)
d12(1,2)                                            1 	(obj:0)
d12(1,3)                                            1 	(obj:0)
d12(2,6)                                            1 	(obj:0)
d12(2,9)                                            1 	(obj:0)
d12(2,12)                                           1 	(obj:0)
d21(2,4)                                            1 	(obj:0)
d21(3,13)                                           1 	(obj:0)
d21(3,14)                                           1 	(obj:0)
d21(3,15)                                           1 	(obj:0)
d21(3,16)                                           1 	(obj:0)
d21(3,17)                                           1 	(obj:0)
d21(3,19)                                           1 	(obj:0)
d21(3,22)                                           1 	(obj:0)
d21(3,23)                                           1 	(obj:0)
d21(3,25)                                           1 	(obj:0)
d21(3,28)                                           1 	(obj:0)
d21(3,31)                                           1 	(obj:0)
STE(1,1)                             4013.01841733717 	(obj:0)
STE(0,0)                                         4725 	(obj:0)
STE(1,2)                             4808.45220333338 	(obj:0)
STE(1,3)                             5849.37383718342 	(obj:0)
STE(2,4)                             2638.25241400388 	(obj:0)
STE(2,5)                             3635.01841733717 	(obj:0)
STE(2,6)                             4547.58175118716 	(obj:0)
STE(2,7)                             3433.68620000009 	(obj:0)
STE(2,8)                             4430.45220333338 	(obj:0)
STE(2,9)                             5343.01553718336 	(obj:0)
STE(2,10)                            4474.60783385013 	(obj:0)
STE(2,11)                            5471.37383718342 	(obj:0)
STE(2,12)                             6383.9371710334 	(obj:0)
STE(3,13)                              46.03420733721 	(obj:0)
STE(3,14)                             1042.8002106705 	(obj:0)
STE(3,15)                            2260.25241400388 	(obj:0)
STE(3,16)                             1042.8002106705 	(obj:0)
STE(3,17)                            2039.56621400379 	(obj:0)
STE(3,18)                            3257.01841733717 	(obj:0)
STE(3,19)                            1955.36354452049 	(obj:0)
STE(3,20)                            2952.12954785378 	(obj:0)
STE(3,21)                            4169.58175118716 	(obj:0)
STE(3,22)                            841.467993333418 	(obj:0)
STE(3,23)                            1838.23399666671 	(obj:0)
STE(3,24)                            3055.68620000009 	(obj:0)
STE(3,25)                            1838.23399666671 	(obj:0)
STE(3,26)                                        2835 	(obj:0)
STE(3,27)                            4052.45220333338 	(obj:0)
STE(3,28)                            2750.79733051669 	(obj:0)
STE(3,29)                            3747.56333384998 	(obj:0)
STE(3,30)                            4965.01553718336 	(obj:0)
STE(3,31)                            1882.38962718346 	(obj:0)
STE(3,32)                            2879.15563051675 	(obj:0)
STE(3,33)                            4096.60783385013 	(obj:0)
STE(3,34)                            2879.15563051675 	(obj:0)
STE(3,35)                            3875.92163385004 	(obj:0)
STE(3,36)                            5093.37383718342 	(obj:0)
STE(3,37)                            3791.71896436673 	(obj:0)
STE(3,38)                            4788.48496770002 	(obj:0)
STE(3,39)                             6005.9371710334 	(obj:0)
y1(3,23)                             1095.70698300004 	(obj:0)
y1(3,25)                                  1992.796386 	(obj:0)
y1(3,26)                             1095.70698300004 	(obj:0)
y1(3,28)                                  1992.796386 	(obj:0)
y1(3,29)                             1095.70698300004 	(obj:0)
y1(3,31)                                  1992.796386 	(obj:0)
y1(3,32)                             1095.70698300004 	(obj:0)
y1(3,34)                                  1992.796386 	(obj:0)
y1(3,35)                             1095.70698300004 	(obj:0)
y1(3,37)                                  1992.796386 	(obj:0)
y1(3,38)                             1095.70698300004 	(obj:0)
BG(3)                                4495.91834999999 	(obj:10)
WB(1)                                3199.95851117552 	(obj:0)
AVE(1)                               3199.95851117552 	(obj:0)
WB(2)                                3265.15049132519 	(obj:0)
AVE(2)                               3265.15049132519 	(obj:0)
WB(3)                                3291.35535332476 	(obj:0)
AVE(3)                               3291.35535332476 	(obj:0)
BG(1)                                2769.17042999646 	(obj:10)
BG(2)                                         3377.85 	(obj:10)
y1(1,1)                              300.583424396548 	(obj:0)
y1(2,4)                              897.089402999962 	(obj:0)
y1(2,7)                              897.089402999962 	(obj:0)
y1(2,10)                             897.089402999962 	(obj:0)
y1(3,13)                                  1992.796386 	(obj:0)
y1(3,14)                             1095.70698300004 	(obj:0)
y1(3,16)                                  1992.796386 	(obj:0)
y1(3,17)                             1095.70698300004 	(obj:0)
y1(3,19)                                  1992.796386 	(obj:0)
y1(3,20)                             1095.70698300004 	(obj:0)
y1(3,22)                                  1992.796386 	(obj:0)
y2(1,2)                              485.739161403556 	(obj:0)
y2(1,3)                               1581.4461444036 	(obj:0)
y2(2,6)                              960.592982999986 	(obj:0)
y2(2,9)                               960.59298299998 	(obj:0)
y2(2,12)                             960.592982999986 	(obj:0)
